300
125 125
1 87 966
2 87 197
3 87 98
4 87 885
5 87 977
6 87 699
7 87 554
8 86 376
9 86 353
10 86 195
11 86 353
12 85 430
13 85 930
14 85 777
15 85 634
16 85 719
17 85 880
18 84 884
19 84 260
20 84 818
21 84 475
22 83 126
23 83 632
24 83 580
25 83 762
26 83 561
27 83 479
28 83 214
29 83 815
30 82 383
31 82 408
32 82 903
33 82 566
34 82 454
35 82 214
36 82 781
37 81 44
38 81 22
39 81 259
40 81 726
41 81 186
42 81 657
43 81 535
44 80 984
45 80 33
46 80 968
47 80 762
48 80 389
49 80 903
50 80 715
51 79 166
52 79 803
53 79 700
54 79 0
55 79 660
56 79 532
57 78 999
58 77 70
59 77 295
60 77 454
61 77 795
62 77 557
63 76 496
64 75 990
65 75 166
66 75 420
67 75 290
68 75 511
69 75 997
70 74 261
71 74 925
72 73 134
73 73 360
74 72 483
75 72 68
76 72 720
77 72 705
78 72 809
79 72 585
80 72 880
81 72 63
82 72 62
83 71 811
84 71 260
85 71 474
86 71 889
87 71 844
88 71 175
89 71 782
90 70 932
91 70 742
92 70 573
93 70 795
94 70 580
95 69 987
96 69 480
97 69 652
98 69 76
99 69 209
100 68 903
101 68 858
102 68 844
103 68 929
104 67 612
105 67 316
106 67 380
107 67 657
108 66 646
109 66 412
110 66 521
111 66 899
112 66 232
113 66 216
114 66 362
115 65 751
116 65 500
117 65 160
118 64 295
119 64 749
120 64 813
121 64 55
122 63 755
123 63 548
124 63 857
125 63 912
126 63 284
127 63 490
128 63 528
129 62 790
130 62 336
131 62 780
132 62 554
133 61 114
134 60 414
135 60 178
136 60 871
137 60 628
138 60 916
139 60 20
140 59 268
141 59 485
142 59 711
143 59 413
144 59 692
145 59 329
146 59 756
147 58 947
148 58 839
149 58 985
150 58 876
151 58 985
152 58 865
153 57 223
154 57 197
155 57 581
156 57 462
157 56 988
158 56 645
159 56 584
160 55 735
161 55 593
162 55 479
163 54 785
164 54 903
165 54 16
166 54 260
167 54 942
168 54 693
169 54 204
170 53 109
171 53 481
172 52 758
173 52 522
174 52 867
175 52 342
176 52 38
177 51 977
178 51 653
179 51 9
180 51 125
181 51 170
182 51 874
183 50 520
184 50 444
185 50 120
186 50 43
187 49 54
188 49 279
189 49 969
190 48 594
191 48 195
192 48 427
193 47 320
194 46 21
195 46 750
196 46 624
197 46 662
198 46 654
199 46 248
200 45 699
201 45 672
202 45 617
203 45 694
204 45 775
205 45 5
206 45 599
207 45 774
208 45 912
209 45 551
210 44 124
211 44 755
212 44 473
213 44 736
214 44 797
215 43 909
216 43 702
217 43 436
218 43 401
219 43 557
220 42 806
221 42 435
222 42 952
223 42 496
224 42 399
225 42 731
226 42 926
227 41 791
228 41 56
229 41 959
230 41 247
231 40 233
232 40 393
233 40 101
234 40 473
235 39 727
236 39 975
237 39 120
238 39 575
239 38 28
240 38 33
241 38 855
242 37 254
243 37 251
244 36 367
245 36 612
246 36 322
247 36 550
248 36 470
249 36 871
250 36 918
251 36 112
252 35 981
253 35 886
254 34 737
255 34 250
256 34 161
257 34 222
258 33 5
259 33 622
260 33 70
261 33 27
262 33 170
263 33 565
264 33 29
265 33 464
266 32 687
267 32 649
268 32 718
269 32 243
270 31 44
271 31 852
272 31 300
273 31 159
274 31 946
275 31 898
276 31 554
277 31 278
278 31 414
279 30 715
280 30 147
281 29 503
282 29 495
283 29 186
284 29 858
285 28 968
286 28 800
287 28 235
288 28 625
289 27 135
290 27 799
291 27 360
292 26 145
293 26 125
294 26 346
295 26 403
296 26 418
297 26 724
298 25 44
299 25 974
300 25 878
